c AI planning file sortnetsort5.AE.stepl.003.qcnf (Jussi.Rintanen@NICTA.com.au)
p cnf 596 1003 
a 25 26 27 28 29 30 31 32 33 34 35 36 37 38 39 40 41 42 43 44 45 46 47 48 49 50 51 52 53 54 55 56 57 58 59 60 61 62 63 64 65 66 67 68 69 70 71 72 73 74 75 76 77 78 509 510 511 512 513 514 515 516 517 518 519 520 521 522 523 524 525 526 527 528 529 530 531 532 553 554 555 556 557 558 559 560 561 562 563 564 565 566 567 568 569 570 571 572 573 574 575 576 0
e 1 2 3 4 5 6 7 8 9 10 11 12 13 14 15 16 17 18 19 20 21 22 23 24 79 80 81 82 83 84 85 86 87 88 89 90 91 92 93 94 95 96 97 98 99 100 101 102 103 104 105 106 107 108 109 110 111 112 113 114 115 116 117 118 119 120 121 122 123 124 125 126 127 128 129 130 131 132 133 134 135 136 137 138 139 140 141 142 143 144 145 146 147 148 149 150 151 152 153 154 155 156 157 158 159 160 161 162 163 164 165 166 167 168 169 170 171 172 173 174 175 176 177 178 179 180 181 182 183 184 185 186 187 188 189 190 191 192 193 194 195 196 197 198 199 200 201 202 203 204 205 206 207 208 209 210 211 212 213 214 215 216 217 218 219 220 221 222 223 224 225 226 227 228 229 230 231 232 233 234 235 236 237 238 239 240 241 242 243 244 245 246 247 248 249 250 251 252 253 254 255 256 257 258 259 260 261 262 263 264 265 266 267 268 269 270 271 272 273 274 275 276 277 278 279 280 281 282 283 284 285 286 287 288 289 290 291 292 293 294 295 296 297 298 299 300 301 302 303 304 305 306 307 308 309 310 311 312 313 314 315 316 317 318 319 320 321 322 323 324 325 326 327 328 329 330 331 332 333 334 335 336 337 338 339 340 341 342 343 344 345 346 347 348 349 350 351 352 353 354 355 356 357 358 359 360 361 362 363 364 365 366 367 368 369 370 371 372 373 374 375 376 377 378 379 380 381 382 383 384 385 386 387 388 389 390 391 392 393 394 395 396 397 398 399 400 401 402 403 404 405 406 407 408 409 410 411 412 413 414 415 416 417 418 419 420 421 422 423 424 425 426 427 428 429 430 431 432 433 434 435 436 437 438 439 440 441 442 443 444 445 446 447 448 449 450 451 452 453 454 455 456 457 458 459 460 461 462 463 464 465 466 467 468 469 470 471 472 473 474 475 476 477 478 479 480 481 482 483 484 485 486 487 488 489 490 491 492 493 494 495 496 497 498 499 500 501 502 503 504 505 506 507 508 533 534 535 536 537 538 539 540 541 542 543 544 545 546 547 548 549 550 551 552 577 578 579 580 581 582 583 584 585 586 587 588 589 590 591 592 593 594 595 596 0
256 257 258 259 260 261 262 263 264 265 266 267 268 269 270 271 272 273 274 275 276 277 278 279 280 281 282 283 284 285 286 287 288 289 290 291 292 293 294 295 296 297 298 299 300 301 302 303 304 305 306 307 308 309 310 311 312 313 314 315 316 317 318 319 320 321 322 323 324 325 326 327 328 329 330 331 332 333 334 335 336 337 338 339 340 341 342 343 344 345 346 347 348 349 350 351 352 353 354 355 356 357 358 359 360 361 362 363 364 365 366 367 368 369 370 371 372 373 374 375 376 377 378 379 380 381 382 383 384 385 386 387 388 389 390 391 392 393 394 395 396 397 398 399 400 401 402 403 404 405 406 407 408 409 410 411 412 413 414 415 416 417 418 419 420 421 422 423 424 425 426 427 428 429 430 431 432 433 434 435 436 437 438 439 440 441 442 443 444 445 446 447 448 449 450 451 452 453 454 455 456 457 458 459 460 461 462 463 464 465 466 467 468 469 470 471 472 473 474 475 476 477 478 479 480 481 482 483 484 485 486 487 488 489 490 491 492 493 494 495 496 497 498 499 500 501 502 503 504 505 506 507 508 0
-256 245 246 247 248 249 250 251 252 253 254 255 0
-257 65 0
-257 -66 0
-258 28 0
-258 -66 0
-259 65 0
-259 28 0
-260 64 0
-260 -65 0
-261 27 0
-261 -65 0
-262 64 0
-262 27 0
-263 25 0
-263 -64 0
-264 26 0
-264 -64 0
-265 25 0
-265 26 0
-266 62 0
-266 -63 0
-267 31 0
-267 -63 0
-268 62 0
-268 31 0
-269 29 0
-269 -62 0
-270 30 0
-270 -62 0
-271 29 0
-271 30 0
-272 25 0
-272 31 0
-273 25 0
-273 30 0
-274 25 0
-274 29 0
-275 32 0
-275 -61 0
-276 33 0
-276 -61 0
-277 32 0
-277 33 0
-278 60 0
-278 33 0
-279 60 0
-279 32 0
-280 26 0
-280 -60 0
-281 29 0
-281 -60 0
-282 26 0
-282 29 0
-283 59 0
-283 34 0
-284 58 0
-284 -59 0
-285 32 0
-285 -59 0
-286 58 0
-286 32 0
-287 27 0
-287 -58 0
-288 30 0
-288 -58 0
-289 27 0
-289 30 0
-290 56 0
-290 -57 0
-291 34 0
-291 -57 0
-292 56 0
-292 34 0
-293 55 0
-293 -56 0
-294 33 0
-294 -56 0
-295 55 0
-295 33 0
-296 28 0
-296 -55 0
-297 31 0
-297 -55 0
-298 28 0
-298 31 0
-299 77 0
-299 -78 0
-300 25 0
-300 -78 0
-301 77 0
-301 25 0
-302 76 0
-302 -77 0
-303 26 0
-303 -77 0
-304 76 0
-304 26 0
-305 28 0
-305 -76 0
-306 27 0
-306 -76 0
-307 28 0
-307 27 0
-308 75 0
-308 25 0
-309 74 0
-309 -75 0
-310 29 0
-310 -75 0
-311 74 0
-311 29 0
-312 31 0
-312 -74 0
-313 30 0
-313 -74 0
-314 31 0
-314 30 0
-315 73 0
-315 26 0
-316 73 0
-316 29 0
-317 33 0
-317 -73 0
-318 32 0
-318 -73 0
-319 33 0
-319 32 0
-320 29 0
-320 -72 0
-321 26 0
-321 -72 0
-322 29 0
-322 26 0
-323 34 0
-323 27 0
-324 34 0
-324 30 0
-325 34 0
-325 32 0
-326 70 0
-326 -71 0
-327 27 0
-327 -71 0
-328 70 0
-328 27 0
-329 32 0
-329 -70 0
-330 30 0
-330 -70 0
-331 32 0
-331 30 0
-332 68 0
-332 -69 0
-333 28 0
-333 -69 0
-334 68 0
-334 28 0
-335 67 0
-335 -68 0
-336 31 0
-336 -68 0
-337 67 0
-337 31 0
-338 34 0
-338 -67 0
-339 33 0
-339 -67 0
-340 34 0
-340 33 0
-341 519 0
-341 -520 0
-342 38 0
-342 -520 0
-343 519 0
-343 38 0
-344 518 0
-344 -519 0
-345 37 0
-345 -519 0
-346 518 0
-346 37 0
-347 35 0
-347 -518 0
-348 36 0
-348 -518 0
-349 35 0
-349 36 0
-350 516 0
-350 -517 0
-351 41 0
-351 -517 0
-352 516 0
-352 41 0
-353 39 0
-353 -516 0
-354 40 0
-354 -516 0
-355 39 0
-355 40 0
-356 35 0
-356 41 0
-357 35 0
-357 40 0
-358 35 0
-358 39 0
-359 42 0
-359 -515 0
-360 43 0
-360 -515 0
-361 42 0
-361 43 0
-362 514 0
-362 43 0
-363 514 0
-363 42 0
-364 36 0
-364 -514 0
-365 39 0
-365 -514 0
-366 36 0
-366 39 0
-367 513 0
-367 44 0
-368 512 0
-368 -513 0
-369 42 0
-369 -513 0
-370 512 0
-370 42 0
-371 37 0
-371 -512 0
-372 40 0
-372 -512 0
-373 37 0
-373 40 0
-374 510 0
-374 -511 0
-375 44 0
-375 -511 0
-376 510 0
-376 44 0
-377 509 0
-377 -510 0
-378 43 0
-378 -510 0
-379 509 0
-379 43 0
-380 38 0
-380 -509 0
-381 41 0
-381 -509 0
-382 38 0
-382 41 0
-383 531 0
-383 -532 0
-384 35 0
-384 -532 0
-385 531 0
-385 35 0
-386 530 0
-386 -531 0
-387 36 0
-387 -531 0
-388 530 0
-388 36 0
-389 38 0
-389 -530 0
-390 37 0
-390 -530 0
-391 38 0
-391 37 0
-392 529 0
-392 35 0
-393 528 0
-393 -529 0
-394 39 0
-394 -529 0
-395 528 0
-395 39 0
-396 41 0
-396 -528 0
-397 40 0
-397 -528 0
-398 41 0
-398 40 0
-399 527 0
-399 36 0
-400 527 0
-400 39 0
-401 43 0
-401 -527 0
-402 42 0
-402 -527 0
-403 43 0
-403 42 0
-404 39 0
-404 -526 0
-405 36 0
-405 -526 0
-406 39 0
-406 36 0
-407 44 0
-407 37 0
-408 44 0
-408 40 0
-409 44 0
-409 42 0
-410 524 0
-410 -525 0
-411 37 0
-411 -525 0
-412 524 0
-412 37 0
-413 42 0
-413 -524 0
-414 40 0
-414 -524 0
-415 42 0
-415 40 0
-416 522 0
-416 -523 0
-417 38 0
-417 -523 0
-418 522 0
-418 38 0
-419 521 0
-419 -522 0
-420 41 0
-420 -522 0
-421 521 0
-421 41 0
-422 44 0
-422 -521 0
-423 43 0
-423 -521 0
-424 44 0
-424 43 0
-425 563 0
-425 -564 0
-426 48 0
-426 -564 0
-427 563 0
-427 48 0
-428 562 0
-428 -563 0
-429 47 0
-429 -563 0
-430 562 0
-430 47 0
-431 45 0
-431 -562 0
-432 46 0
-432 -562 0
-433 45 0
-433 46 0
-434 560 0
-434 -561 0
-435 51 0
-435 -561 0
-436 560 0
-436 51 0
-437 49 0
-437 -560 0
-438 50 0
-438 -560 0
-439 49 0
-439 50 0
-440 45 0
-440 51 0
-441 45 0
-441 50 0
-442 45 0
-442 49 0
-443 52 0
-443 -559 0
-444 53 0
-444 -559 0
-445 52 0
-445 53 0
-446 558 0
-446 53 0
-447 558 0
-447 52 0
-448 46 0
-448 -558 0
-449 49 0
-449 -558 0
-450 46 0
-450 49 0
-451 557 0
-451 54 0
-452 556 0
-452 -557 0
-453 52 0
-453 -557 0
-454 556 0
-454 52 0
-455 47 0
-455 -556 0
-456 50 0
-456 -556 0
-457 47 0
-457 50 0
-458 554 0
-458 -555 0
-459 54 0
-459 -555 0
-460 554 0
-460 54 0
-461 553 0
-461 -554 0
-462 53 0
-462 -554 0
-463 553 0
-463 53 0
-464 48 0
-464 -553 0
-465 51 0
-465 -553 0
-466 48 0
-466 51 0
-467 575 0
-467 -576 0
-468 45 0
-468 -576 0
-469 575 0
-469 45 0
-470 574 0
-470 -575 0
-471 46 0
-471 -575 0
-472 574 0
-472 46 0
-473 48 0
-473 -574 0
-474 47 0
-474 -574 0
-475 48 0
-475 47 0
-476 573 0
-476 45 0
-477 572 0
-477 -573 0
-478 49 0
-478 -573 0
-479 572 0
-479 49 0
-480 51 0
-480 -572 0
-481 50 0
-481 -572 0
-482 51 0
-482 50 0
-483 571 0
-483 46 0
-484 571 0
-484 49 0
-485 53 0
-485 -571 0
-486 52 0
-486 -571 0
-487 53 0
-487 52 0
-488 49 0
-488 -570 0
-489 46 0
-489 -570 0
-490 49 0
-490 46 0
-491 54 0
-491 47 0
-492 54 0
-492 50 0
-493 54 0
-493 52 0
-494 568 0
-494 -569 0
-495 47 0
-495 -569 0
-496 568 0
-496 47 0
-497 52 0
-497 -568 0
-498 50 0
-498 -568 0
-499 52 0
-499 50 0
-500 566 0
-500 -567 0
-501 48 0
-501 -567 0
-502 566 0
-502 48 0
-503 565 0
-503 -566 0
-504 51 0
-504 -566 0
-505 565 0
-505 51 0
-506 54 0
-506 -565 0
-507 53 0
-507 -565 0
-508 54 0
-508 53 0
-245 1 -7 0
-245 -1 7 82 81 80 79 0
-245 -82 244 0
-245 -25 -1 2 82 0
-245 -81 243 0
-245 -26 -1 3 81 0
-245 -80 242 0
-245 -27 -1 4 80 0
-245 -79 241 0
-245 -28 -1 5 79 0
-245 2 -8 83 0
-245 -2 8 86 85 84 0
-245 -83 240 0
-245 -25 -1 2 83 0
-245 -86 239 0
-245 -29 -2 3 86 0
-245 -85 238 0
-245 -30 -2 4 85 0
-245 -84 237 0
-245 -31 -2 5 84 0
-245 3 -9 88 87 0
-245 -3 9 90 89 0
-245 -88 236 0
-245 -26 -1 3 88 0
-245 -87 235 0
-245 -29 -2 3 87 0
-245 -90 234 0
-245 -32 -3 4 90 0
-245 -89 233 0
-245 -33 -3 5 89 0
-245 4 -10 93 92 91 0
-245 -4 10 94 0
-245 -93 232 0
-245 -27 -1 4 93 0
-245 -92 231 0
-245 -30 -2 4 92 0
-245 -91 230 0
-245 -32 -3 4 91 0
-245 -94 229 0
-245 -34 -4 5 94 0
-245 5 -11 98 97 96 95 0
-245 -5 11 0
-245 -98 228 0
-245 -28 -1 5 98 0
-245 -97 227 0
-245 -31 -2 5 97 0
-245 -96 226 0
-245 -33 -3 5 96 0
-245 -95 225 0
-245 -34 -4 5 95 0
-245 6 -12 0
-245 -6 12 0
-245 223 224 0
-245 221 222 0
-245 219 220 0
-245 217 218 0
-245 215 216 0
-245 213 214 0
-245 211 212 0
-245 209 210 0
-245 207 208 0
-245 205 206 0
-245 194 195 196 197 198 199 200 201 202 203 204 0
-246 0
-247 0
-248 0
-249 0
-250 0
-251 0
-252 0
-253 0
-254 0
-255 0
-244 25 0
-244 1 0
-244 -2 0
-243 26 0
-243 1 0
-243 -3 0
-242 27 0
-242 1 0
-242 -4 0
-241 28 0
-241 1 0
-241 -5 0
-240 25 0
-240 1 0
-240 -2 0
-239 29 0
-239 2 0
-239 -3 0
-238 30 0
-238 2 0
-238 -4 0
-237 31 0
-237 2 0
-237 -5 0
-236 26 0
-236 1 0
-236 -3 0
-235 29 0
-235 2 0
-235 -3 0
-234 32 0
-234 3 0
-234 -4 0
-233 33 0
-233 3 0
-233 -5 0
-232 27 0
-232 1 0
-232 -4 0
-231 30 0
-231 2 0
-231 -4 0
-230 32 0
-230 3 0
-230 -4 0
-229 34 0
-229 4 0
-229 -5 0
-228 28 0
-228 1 0
-228 -5 0
-227 31 0
-227 2 0
-227 -5 0
-226 33 0
-226 3 0
-226 -5 0
-225 34 0
-225 4 0
-225 -5 0
-223 -25 -1 2 0
-224 -7 0
-224 8 0
-221 -26 -1 3 0
-222 -7 0
-222 9 0
-219 -27 -1 4 0
-220 -7 0
-220 10 0
-217 -28 -1 5 0
-218 -7 0
-218 11 0
-215 -29 -2 3 0
-216 -8 0
-216 9 0
-213 -30 -2 4 0
-214 -8 0
-214 10 0
-211 -31 -2 5 0
-212 -8 0
-212 11 0
-209 -32 -3 4 0
-210 -9 0
-210 10 0
-207 -33 -3 5 0
-208 -9 0
-208 11 0
-205 -34 -4 5 0
-206 -10 0
-206 11 0
-194 7 -13 0
-194 -7 13 536 535 534 533 0
-194 -536 193 0
-194 -35 -7 8 536 0
-194 -535 192 0
-194 -36 -7 9 535 0
-194 -534 191 0
-194 -37 -7 10 534 0
-194 -533 190 0
-194 -38 -7 11 533 0
-194 8 -14 537 0
-194 -8 14 540 539 538 0
-194 -537 189 0
-194 -35 -7 8 537 0
-194 -540 188 0
-194 -39 -8 9 540 0
-194 -539 187 0
-194 -40 -8 10 539 0
-194 -538 186 0
-194 -41 -8 11 538 0
-194 9 -15 542 541 0
-194 -9 15 544 543 0
-194 -542 185 0
-194 -36 -7 9 542 0
-194 -541 184 0
-194 -39 -8 9 541 0
-194 -544 183 0
-194 -42 -9 10 544 0
-194 -543 182 0
-194 -43 -9 11 543 0
-194 10 -16 547 546 545 0
-194 -10 16 548 0
-194 -547 181 0
-194 -37 -7 10 547 0
-194 -546 180 0
-194 -40 -8 10 546 0
-194 -545 179 0
-194 -42 -9 10 545 0
-194 -548 178 0
-194 -44 -10 11 548 0
-194 11 -17 552 551 550 549 0
-194 -11 17 0
-194 -552 177 0
-194 -38 -7 11 552 0
-194 -551 176 0
-194 -41 -8 11 551 0
-194 -550 175 0
-194 -43 -9 11 550 0
-194 -549 174 0
-194 -44 -10 11 549 0
-194 12 -18 0
-194 -12 18 0
-194 172 173 0
-194 170 171 0
-194 168 169 0
-194 166 167 0
-194 164 165 0
-194 162 163 0
-194 160 161 0
-194 158 159 0
-194 156 157 0
-194 154 155 0
-194 143 144 145 146 147 148 149 150 151 152 153 0
-195 0
-196 0
-197 0
-198 0
-199 0
-200 0
-201 0
-202 0
-203 0
-204 0
-193 35 0
-193 7 0
-193 -8 0
-192 36 0
-192 7 0
-192 -9 0
-191 37 0
-191 7 0
-191 -10 0
-190 38 0
-190 7 0
-190 -11 0
-189 35 0
-189 7 0
-189 -8 0
-188 39 0
-188 8 0
-188 -9 0
-187 40 0
-187 8 0
-187 -10 0
-186 41 0
-186 8 0
-186 -11 0
-185 36 0
-185 7 0
-185 -9 0
-184 39 0
-184 8 0
-184 -9 0
-183 42 0
-183 9 0
-183 -10 0
-182 43 0
-182 9 0
-182 -11 0
-181 37 0
-181 7 0
-181 -10 0
-180 40 0
-180 8 0
-180 -10 0
-179 42 0
-179 9 0
-179 -10 0
-178 44 0
-178 10 0
-178 -11 0
-177 38 0
-177 7 0
-177 -11 0
-176 41 0
-176 8 0
-176 -11 0
-175 43 0
-175 9 0
-175 -11 0
-174 44 0
-174 10 0
-174 -11 0
-172 -35 -7 8 0
-173 -13 0
-173 14 0
-170 -36 -7 9 0
-171 -13 0
-171 15 0
-168 -37 -7 10 0
-169 -13 0
-169 16 0
-166 -38 -7 11 0
-167 -13 0
-167 17 0
-164 -39 -8 9 0
-165 -14 0
-165 15 0
-162 -40 -8 10 0
-163 -14 0
-163 16 0
-160 -41 -8 11 0
-161 -14 0
-161 17 0
-158 -42 -9 10 0
-159 -15 0
-159 16 0
-156 -43 -9 11 0
-157 -15 0
-157 17 0
-154 -44 -10 11 0
-155 -16 0
-155 17 0
-143 13 -19 0
-143 -13 19 580 579 578 577 0
-143 -580 142 0
-143 -45 -13 14 580 0
-143 -579 141 0
-143 -46 -13 15 579 0
-143 -578 140 0
-143 -47 -13 16 578 0
-143 -577 139 0
-143 -48 -13 17 577 0
-143 14 -20 581 0
-143 -14 20 584 583 582 0
-143 -581 138 0
-143 -45 -13 14 581 0
-143 -584 137 0
-143 -49 -14 15 584 0
-143 -583 136 0
-143 -50 -14 16 583 0
-143 -582 135 0
-143 -51 -14 17 582 0
-143 15 -21 586 585 0
-143 -15 21 588 587 0
-143 -586 134 0
-143 -46 -13 15 586 0
-143 -585 133 0
-143 -49 -14 15 585 0
-143 -588 132 0
-143 -52 -15 16 588 0
-143 -587 131 0
-143 -53 -15 17 587 0
-143 16 -22 591 590 589 0
-143 -16 22 592 0
-143 -591 130 0
-143 -47 -13 16 591 0
-143 -590 129 0
-143 -50 -14 16 590 0
-143 -589 128 0
-143 -52 -15 16 589 0
-143 -592 127 0
-143 -54 -16 17 592 0
-143 17 -23 596 595 594 593 0
-143 -17 23 0
-143 -596 126 0
-143 -48 -13 17 596 0
-143 -595 125 0
-143 -51 -14 17 595 0
-143 -594 124 0
-143 -53 -15 17 594 0
-143 -593 123 0
-143 -54 -16 17 593 0
-143 18 -24 0
-143 -18 24 0
-143 121 122 0
-143 119 120 0
-143 117 118 0
-143 115 116 0
-143 113 114 0
-143 111 112 0
-143 109 110 0
-143 107 108 0
-143 105 106 0
-143 103 104 0
-143 99 100 101 102 0
-144 0
-145 0
-146 0
-147 0
-148 0
-149 0
-150 0
-151 0
-152 0
-153 0
-142 45 0
-142 13 0
-142 -14 0
-141 46 0
-141 13 0
-141 -15 0
-140 47 0
-140 13 0
-140 -16 0
-139 48 0
-139 13 0
-139 -17 0
-138 45 0
-138 13 0
-138 -14 0
-137 49 0
-137 14 0
-137 -15 0
-136 50 0
-136 14 0
-136 -16 0
-135 51 0
-135 14 0
-135 -17 0
-134 46 0
-134 13 0
-134 -15 0
-133 49 0
-133 14 0
-133 -15 0
-132 52 0
-132 15 0
-132 -16 0
-131 53 0
-131 15 0
-131 -17 0
-130 47 0
-130 13 0
-130 -16 0
-129 50 0
-129 14 0
-129 -16 0
-128 52 0
-128 15 0
-128 -16 0
-127 54 0
-127 16 0
-127 -17 0
-126 48 0
-126 13 0
-126 -17 0
-125 51 0
-125 14 0
-125 -17 0
-124 53 0
-124 15 0
-124 -17 0
-123 54 0
-123 16 0
-123 -17 0
-121 -45 -13 14 0
-122 -19 0
-122 20 0
-119 -46 -13 15 0
-120 -19 0
-120 21 0
-117 -47 -13 16 0
-118 -19 0
-118 22 0
-115 -48 -13 17 0
-116 -19 0
-116 23 0
-113 -49 -14 15 0
-114 -20 0
-114 21 0
-111 -50 -14 16 0
-112 -20 0
-112 22 0
-109 -51 -14 17 0
-110 -20 0
-110 23 0
-107 -52 -15 16 0
-108 -21 0
-108 22 0
-105 -53 -15 17 0
-106 -21 0
-106 23 0
-103 -54 -16 17 0
-104 -22 0
-104 23 0
-99 19 0
-99 -20 0
-100 20 0
-100 -21 0
-101 21 0
-101 -22 0
-102 22 0
-102 -23 0
